language ESSENCE' 1.0

letting jobs = 102
letting horizon = 784
letting resourcesRenew = 2
letting resourcesNonrenew = 2
letting resourceLimits = [12, 12, 385, 425]
letting successors = [[2, 4, 5, 6, 7, 8, 9, 14], [26, 23, 20, 19, 3], [31, 25, 24, 22, 21, 15, 13, 10], [36, 25, 24, 18, 17, 15, 13, 11], [36, 27, 25, 24, 21, 15, 11], [36, 31, 25, 24, 21, 12], [33, 32, 31, 24, 23, 21, 20], [36, 33, 31, 28, 27, 25, 24], [36, 35, 27, 24, 21, 16], [38, 36, 32, 29, 27, 16], [47, 40, 38, 37, 35, 34, 33, 32, 31, 30, 29], [38, 32, 27, 16], [42, 38, 37, 35, 32, 28, 27], [37, 36, 34, 32, 31, 28, 27], [48, 47, 45, 42, 40, 38, 37, 35, 34, 32], [47, 44, 42, 40, 37, 34, 33, 30], [47, 45, 43, 40, 37, 35, 32, 29], [44, 42, 37, 34, 30, 28], [47, 42, 40, 34, 32, 30], [45, 41, 36, 35, 34, 29], [44, 38, 37, 34, 28], [44, 42, 37, 34, 28], [45, 41, 40, 38, 29], [48, 45, 44, 39, 38, 37, 34], [45, 41, 35, 29], [48, 45, 43, 41, 39, 35], [47, 39, 30], [47, 45, 43, 40, 39], [48, 44, 42, 39], [57, 50, 48, 46, 45, 41], [61, 54, 46, 43, 41], [50, 44, 39], [70, 43, 39], [70, 61, 54, 46, 43], [61, 54, 52, 51, 50, 44], [70, 61, 57, 54, 53, 52, 51, 50, 49], [57, 54, 41], [61, 46, 43], [61, 57, 56, 54, 52, 49, 46], [70, 61, 56, 53, 50, 49, 46], [70, 56, 53, 52, 51, 49], [70, 59, 54, 53, 51, 50], [59, 57, 56, 53, 52, 50], [70, 63, 57, 55, 53, 49], [74, 63, 61, 59, 53, 52], [69, 63, 60, 58, 51], [63, 61, 57, 51], [64, 62, 60, 56, 54], [76, 74, 69, 68, 64, 59, 58], [74, 69, 68, 66, 63, 58], [74, 72, 68, 64, 55], [76, 69, 68, 66, 64, 58], [79, 72, 69, 67, 65, 64, 60], [79, 77, 76, 75, 74, 72, 68, 67], [79, 77, 76, 67, 66, 62], [80, 79, 78, 77, 73, 68, 65, 63], [76, 68, 67, 66, 62], [79, 77, 67, 62], [79, 78, 72, 71, 67, 66], [78, 77, 73, 68, 66], [80, 76, 69, 65], [83, 78, 71, 65], [101, 92, 83, 82, 76, 71], [101, 77, 75, 71], [101, 92, 86, 82, 75], [86, 83, 82, 80, 75], [85, 80, 73], [83, 82, 71], [101, 99, 87, 86, 85, 84, 83, 82], [100, 92, 75], [100, 99, 87, 86, 85, 84, 81], [101, 99, 85, 84, 82, 81], [101, 100, 99, 98, 92, 86, 83, 81], [101, 99, 82, 78], [99, 87, 85, 84, 81], [100, 99, 97, 89, 87, 84], [100, 99, 96, 92, 90, 85], [90, 85, 84], [99, 98, 97, 94, 89, 87], [100, 94, 91, 89, 87], [97, 96, 94, 90, 88], [100, 98, 96, 95, 94, 89], [97, 95, 94, 88], [98, 96, 94, 91], [95, 94, 88], [94, 90, 89], [96, 90], [89], [93], [95], [93], [94], [102], [102], [102], [102], [102], [102], [102], [102], [102], []]
letting durations = [[0], [7, 9, 9], [5, 6, 7], [4, 8, 10], [2, 9, 9], [1, 9, 9], [2, 4, 7], [3, 5, 9], [4, 4, 9], [1, 5, 8], [2, 3, 6], [1, 3, 5], [1, 4, 7], [2, 6, 7], [1, 5, 9], [6, 8, 10], [1, 9, 10], [1, 8, 9], [4, 9, 10], [4, 4, 5], [6, 7, 10], [1, 3, 7], [3, 4, 6], [1, 3, 4], [2, 7, 9], [1, 9, 10], [1, 2, 10], [1, 2, 6], [2, 3, 10], [1, 2, 9], [4, 6, 7], [2, 7, 8], [2, 5, 5], [8, 9, 10], [1, 4, 5], [6, 6, 9], [2, 3, 8], [1, 8, 8], [4, 5, 8], [3, 9, 10], [2, 3, 9], [6, 6, 9], [4, 7, 7], [4, 9, 10], [4, 9, 10], [1, 2, 4], [6, 9, 9], [1, 3, 3], [2, 3, 7], [7, 8, 10], [5, 6, 6], [2, 2, 7], [6, 9, 10], [2, 7, 7], [1, 7, 8], [1, 3, 9], [5, 7, 10], [4, 4, 6], [7, 7, 9], [2, 5, 6], [1, 10, 10], [3, 8, 8], [6, 7, 8], [2, 4, 9], [2, 4, 6], [4, 4, 6], [2, 8, 10], [1, 2, 3], [2, 6, 8], [4, 5, 7], [1, 3, 7], [2, 6, 10], [1, 6, 7], [5, 9, 10], [3, 8, 9], [1, 6, 6], [8, 9, 10], [1, 4, 6], [3, 4, 7], [1, 4, 6], [1, 6, 7], [4, 8, 10], [1, 3, 10], [1, 2, 7], [5, 7, 8], [5, 5, 5], [8, 9, 9], [4, 9, 10], [5, 7, 10], [1, 3, 8], [1, 2, 6], [3, 4, 9], [2, 3, 8], [1, 6, 7], [2, 3, 7], [3, 8, 9], [1, 2, 7], [3, 3, 4], [1, 2, 3], [4, 5, 9], [2, 6, 8], [0]]
letting resourceUsage = [[[0, 0, 0, 0]], [[0, 4, 0, 10], [2, 0, 0, 10], [0, 1, 4, 0]], [[4, 0, 9, 0], [0, 2, 7, 0], [0, 2, 4, 0]], [[3, 0, 0, 7], [0, 4, 5, 0], [2, 0, 5, 0]], [[0, 1, 0, 8], [3, 0, 6, 0], [1, 0, 0, 3]], [[3, 0, 0, 6], [3, 0, 4, 0], [3, 0, 0, 3]], [[4, 0, 0, 6], [0, 4, 0, 5], [2, 0, 3, 0]], [[0, 4, 0, 8], [0, 3, 5, 0], [0, 2, 5, 0]], [[3, 0, 4, 0], [0, 4, 2, 0], [0, 4, 1, 0]], [[2, 0, 9, 0], [1, 0, 8, 0], [1, 0, 7, 0]], [[3, 0, 4, 0], [0, 3, 3, 0], [2, 0, 0, 5]], [[5, 0, 6, 0], [0, 4, 0, 2], [0, 4, 4, 0]], [[3, 0, 7, 0], [3, 0, 0, 6], [2, 0, 3, 0]], [[5, 0, 9, 0], [4, 0, 8, 0], [2, 0, 0, 5]], [[4, 0, 0, 6], [4, 0, 0, 4], [4, 0, 6, 0]], [[4, 0, 6, 0], [0, 5, 0, 6], [3, 0, 0, 3]], [[5, 0, 6, 0], [4, 0, 0, 8], [0, 1, 0, 8]], [[1, 0, 4, 0], [0, 2, 4, 0], [1, 0, 3, 0]], [[3, 0, 8, 0], [0, 2, 0, 6], [0, 2, 4, 0]], [[2, 0, 6, 0], [0, 3, 0, 6], [0, 3, 4, 0]], [[3, 0, 4, 0], [2, 0, 0, 6], [2, 0, 0, 5]], [[0, 1, 7, 0], [3, 0, 0, 7], [2, 0, 0, 4]], [[5, 0, 6, 0], [5, 0, 5, 0], [0, 4, 0, 7]], [[3, 0, 0, 7], [0, 4, 1, 0], [0, 3, 1, 0]], [[3, 0, 0, 8], [3, 0, 0, 6], [0, 1, 0, 5]], [[4, 0, 0, 8], [2, 0, 2, 0], [2, 0, 1, 0]], [[2, 0, 8, 0], [0, 1, 0, 5], [0, 1, 0, 4]], [[0, 3, 0, 6], [0, 3, 0, 3], [0, 1, 0, 3]], [[0, 5, 0, 3], [0, 3, 0, 3], [4, 0, 0, 1]], [[5, 0, 0, 8], [0, 4, 0, 8], [5, 0, 0, 7]], [[1, 0, 0, 8], [0, 4, 0, 5], [1, 0, 0, 3]], [[3, 0, 0, 6], [0, 3, 6, 0], [2, 0, 3, 0]], [[5, 0, 4, 0], [0, 5, 4, 0], [0, 5, 0, 7]], [[0, 4, 0, 8], [2, 0, 0, 7], [2, 0, 0, 6]], [[0, 3, 6, 0], [3, 0, 0, 2], [3, 0, 4, 0]], [[0, 4, 7, 0], [3, 0, 5, 0], [0, 3, 0, 8]], [[0, 5, 7, 0], [0, 5, 0, 4], [0, 5, 0, 3]], [[0, 5, 0, 4], [4, 0, 9, 0], [0, 5, 0, 2]], [[3, 0, 0, 8], [2, 0, 0, 5], [1, 0, 0, 4]], [[4, 0, 5, 0], [0, 2, 3, 0], [0, 2, 2, 0]], [[4, 0, 3, 0], [0, 1, 0, 4], [2, 0, 3, 0]], [[0, 5, 0, 6], [3, 0, 7, 0], [0, 3, 0, 5]], [[3, 0, 0, 7], [0, 2, 0, 6], [1, 0, 6, 0]], [[5, 0, 0, 3], [5, 0, 2, 0], [0, 2, 1, 0]], [[2, 0, 4, 0], [2, 0, 0, 5], [2, 0, 0, 2]], [[0, 4, 8, 0], [3, 0, 0, 8], [3, 0, 5, 0]], [[0, 3, 0, 7], [4, 0, 4, 0], [0, 2, 4, 0]], [[0, 2, 0, 5], [0, 2, 6, 0], [3, 0, 2, 0]], [[2, 0, 0, 9], [2, 0, 0, 6], [2, 0, 0, 4]], [[3, 0, 0, 4], [0, 4, 0, 2], [0, 4, 2, 0]], [[0, 2, 0, 7], [0, 1, 0, 5], [2, 0, 5, 0]], [[0, 5, 2, 0], [4, 0, 0, 8], [0, 3, 0, 5]], [[0, 4, 5, 0], [0, 4, 0, 3], [0, 4, 4, 0]], [[0, 3, 5, 0], [0, 3, 4, 0], [2, 0, 0, 3]], [[4, 0, 0, 6], [0, 4, 3, 0], [0, 3, 3, 0]], [[5, 0, 0, 4], [5, 0, 6, 0], [5, 0, 0, 3]], [[0, 2, 0, 8], [1, 0, 0, 8], [0, 2, 3, 0]], [[0, 1, 10, 0], [0, 1, 0, 2], [1, 0, 5, 0]], [[5, 0, 6, 0], [0, 3, 0, 7], [0, 3, 5, 0]], [[0, 5, 8, 0], [3, 0, 0, 7], [2, 0, 0, 5]], [[0, 5, 3, 0], [0, 5, 2, 0], [0, 5, 0, 6]], [[2, 0, 0, 8], [1, 0, 10, 0], [0, 1, 0, 5]], [[4, 0, 4, 0], [0, 2, 4, 0], [0, 2, 0, 4]], [[2, 0, 0, 4], [0, 2, 4, 0], [1, 0, 0, 1]], [[4, 0, 0, 6], [0, 3, 5, 0], [0, 3, 4, 0]], [[0, 3, 9, 0], [3, 0, 7, 0], [0, 3, 6, 0]], [[0, 5, 0, 5], [0, 3, 0, 2], [2, 0, 4, 0]], [[0, 1, 7, 0], [3, 0, 4, 0], [3, 0, 0, 5]], [[0, 4, 3, 0], [0, 3, 1, 0], [0, 3, 0, 4]], [[0, 3, 6, 0], [0, 3, 5, 0], [2, 0, 0, 5]], [[4, 0, 0, 10], [0, 1, 4, 0], [3, 0, 0, 5]], [[4, 0, 9, 0], [3, 0, 9, 0], [0, 2, 7, 0]], [[4, 0, 0, 10], [0, 5, 6, 0], [0, 5, 0, 2]], [[3, 0, 7, 0], [0, 1, 0, 7], [0, 1, 3, 0]], [[4, 0, 0, 2], [0, 3, 0, 2], [2, 0, 2, 0]], [[0, 4, 5, 0], [0, 4, 0, 9], [2, 0, 0, 8]], [[0, 5, 8, 0], [5, 0, 4, 0], [5, 0, 0, 3]], [[5, 0, 0, 8], [0, 2, 0, 4], [5, 0, 0, 1]], [[4, 0, 0, 3], [4, 0, 6, 0], [0, 1, 5, 0]], [[3, 0, 9, 0], [0, 3, 9, 0], [2, 0, 7, 0]], [[0, 3, 0, 8], [0, 2, 2, 0], [0, 2, 0, 4]], [[0, 5, 0, 7], [4, 0, 0, 3], [3, 0, 3, 0]], [[2, 0, 0, 8], [0, 5, 0, 5], [0, 5, 0, 4]], [[0, 5, 0, 5], [4, 0, 6, 0], [0, 5, 0, 3]], [[4, 0, 0, 10], [3, 0, 8, 0], [3, 0, 0, 1]], [[0, 3, 2, 0], [5, 0, 2, 0], [0, 1, 0, 1]], [[5, 0, 6, 0], [0, 2, 0, 5], [4, 0, 0, 5]], [[0, 4, 0, 6], [0, 3, 2, 0], [0, 3, 0, 5]], [[0, 3, 0, 5], [0, 2, 0, 3], [0, 2, 4, 0]], [[2, 0, 9, 0], [1, 0, 4, 0], [0, 1, 0, 5]], [[3, 0, 0, 8], [0, 1, 6, 0], [0, 1, 5, 0]], [[0, 2, 0, 4], [4, 0, 8, 0], [3, 0, 7, 0]], [[5, 0, 0, 4], [2, 0, 3, 0], [1, 0, 1, 0]], [[2, 0, 6, 0], [2, 0, 0, 10], [2, 0, 0, 9]], [[0, 4, 0, 9], [4, 0, 6, 0], [0, 3, 0, 5]], [[0, 5, 4, 0], [2, 0, 2, 0], [1, 0, 0, 4]], [[0, 5, 0, 4], [0, 4, 0, 4], [2, 0, 4, 0]], [[1, 0, 10, 0], [1, 0, 0, 7], [1, 0, 0, 6]], [[0, 4, 8, 0], [4, 0, 0, 8], [4, 0, 0, 7]], [[4, 0, 9, 0], [0, 2, 0, 3], [0, 2, 4, 0]], [[4, 0, 0, 9], [3, 0, 7, 0], [3, 0, 0, 9]], [[0, 0, 0, 0]]]
